#######################
Slurm job id: 17497813_309
Running on machine: p71
Running cmd: /nfs/shared/static-builds/gurobi1202 SOFTMEMLIMIT=125 MIPFocus=3 Presolve=1 TimeLimit=300 seed=8 /nfs/models/miplib2010/k16x240.mps.bz2
#######################
Set parameter TimeLimit to value 300
Set parameter SoftMemLimit to value 125
Set parameter MIPFocus to value 3
Set parameter LogFile to value 1202-MIPFocus3-Presolve1-TimeLimit300-k16x240-8.log
Set parameter Presolve to value 1
Set parameter Seed to value 8
Using license file /opt/gurobi/gurobi.lic

Gurobi Optimizer version 12.0.2 build v12.0.2rc0 (linux64 - "Ubuntu 22.04.4 LTS")
Copyright (c) 2025, Gurobi Optimization, LLC

Read MPS format model from file /nfs/models/miplib2010/k16x240.mps.bz2
Reading time = 0.00 seconds
k16x240: 256 rows, 480 columns, 960 nonzeros

Using Gurobi shared library /nfs/shared/static-builds/gurobi1202

CPU model: Intel(R) Xeon(R) E-2388G CPU @ 3.20GHz, instruction set [SSE2|AVX|AVX2|AVX512]
Thread count: 8 physical cores, 16 logical processors, using up to 16 threads

Non-default parameters:
TimeLimit  300
SoftMemLimit  125
MIPFocus  3
Presolve  1
Seed  8

Optimize a model with 256 rows, 480 columns and 960 nonzeros
Model fingerprint: 0x4e80885f
Variable types: 240 continuous, 240 integer (240 binary)
Coefficient statistics:
  Matrix range     [1e+00, 1e+03]
  Objective range  [1e+00, 1e+03]
  Bounds range     [1e+00, 1e+03]
  RHS range        [4e+00, 4e+02]
Found heuristic solution: objective 27117.000000
Presolve time: 0.00s
Presolved: 256 rows, 480 columns, 960 nonzeros
Variable types: 240 continuous, 240 integer (240 binary)

Root relaxation: objective 2.769838e+03, 51 iterations, 0.00 seconds (0.00 work units)

    Nodes    |    Current Node    |     Objective Bounds      |     Work
 Expl Unexpl |  Obj  Depth IntInf | Incumbent    BestBd   Gap | It/Node Time

     0     0 2769.83800    0   14 27117.0000 2769.83800  89.8%     -    0s
H    0     0                    11359.000000 2769.83800  75.6%     -    0s
H    0     0                    11342.000000 2769.83800  75.6%     -    0s
H    0     0                    11195.000000 2769.83800  75.3%     -    0s
H    0     0                    11088.000000 2769.83800  75.0%     -    0s
H    0     0                    11074.000000 2769.83800  75.0%     -    0s
H    0     0                    10916.000000 8116.87580  25.6%     -    0s
     0     0 8116.87580    0   26 10916.0000 8116.87580  25.6%     -    0s
H    0     0                    10838.000000 8182.85928  24.5%     -    0s
H    0     0                    10836.000000 8182.85928  24.5%     -    0s
H    0     0                    10826.000000 8182.85928  24.4%     -    0s
H    0     0                    10806.000000 8182.85928  24.3%     -    0s
     0     0 8741.28533    0   24 10806.0000 8741.28533  19.1%     -    0s
     0     0 8955.29750    0   32 10806.0000 8955.29750  17.1%     -    0s
     0     0 9051.08366    0   37 10806.0000 9051.08366  16.2%     -    0s
     0     0 9051.08366    0   37 10806.0000 9051.08366  16.2%     -    0s
     0     0 9187.99600    0   34 10806.0000 9187.99600  15.0%     -    0s
     0     0 9192.20978    0   27 10806.0000 9192.20978  14.9%     -    0s
H    0     0                    10794.000000 9202.11341  14.7%     -    0s
H    0     0                    10750.000000 9202.11341  14.4%     -    0s
     0     0 9272.97350    0   33 10750.0000 9272.97350  13.7%     -    0s
     0     0 9273.41860    0   33 10750.0000 9273.41860  13.7%     -    0s
H    0     0                    10678.000000 9273.41860  13.2%     -    0s
     0     2 9273.41860    0   33 10678.0000 9273.41860  13.2%     -    0s
H 1495  1417                    10674.000000 9641.48745  9.67%  40.0    0s
  5271  3427 10489.1196   28   20 10674.0000 10304.6506  3.46%  80.7    5s
 21271  7621 10554.6741   24   15 10674.0000 10546.4446  1.20%  52.5   10s

Cutting planes:
  Lift-and-project: 9
  Cover: 1
  Implied bound: 9
  Dual implied bound: 7
  MIR: 131
  Flow cover: 513
  Flow path: 30
  Zero half: 26
  Network: 23
  Relax-and-lift: 5

Explored 36769 nodes (1385476 simplex iterations) in 11.72 seconds (16.49 work units)
Thread count was 16 (of 16 available processors)

Solution count 10: 10674 10678 10750 ... 11074

Optimal solution found (tolerance 1.00e-04)
Best objective 1.067400000000e+04, best bound 1.067300000000e+04, gap 0.0094%
